NAME: tsp40_29
COMMENT: 40-tsp problem (Padberg/Rinaldi)
TYPE: TSP
DIMENSION: 40
EDGE_WEIGHT_TYPE : EUC_2D
NODE_COORD_SECTION
1 15 9
2 10 4
3 37 19
4 26 36
5 32 12
6 1 36
7 30 14
8 0 32
9 36 5
10 19 28
11 38 30
12 8 14
13 19 36
14 29 17
15 28 5
16 24 40
17 3 13
18 33 39
19 24 38
20 27 26
21 36 35
22 33 22
23 39 1
24 4 8
25 36 36
26 14 32
27 37 6
28 18 31
29 38 11
30 23 19
31 1 38
32 33 20
33 22 6
34 11 15
35 34 16
36 33 2
37 3 9
38 31 3
39 39 29
40 30 4
